x05m05e0t1tp5_01
3315
3315
3315
3315
3430
3430
3430
3430
3430
3430
3430
3430
3430
3430
3430
3430
3430
3430
3430
3430
3430
3430
3430
3430
3430
3430
3430
3430
3430
3430
3430
3430
3430
3430
3430
3430
3430
3430
3430
3430
3430
3430
3430
3466
3466
3466
3466
3466
3466
3466
3466
3466
3466
3466
3466
3466
3466
3466
3466
3466
3466
3466
3466
3466
3466
3466
3466
3466
3466
3466
3466
3466
3466
3466
3466
3466
3466
3466
3466
3466
3466
3466
3466
3466
3466
3466
3466
3466
3466
3466
3466
3466
3466
3466
3466
3466
3466
3466
3466
3466
3466
3466
3466
3466
3466
3466
3466
3466
3466
3466
3466
3466
3466
3470
3470
3470
3470
3470
3470
3470
3470
3470
3470
3470
3470
3470
3470
3470
3470
3470
3470
3470
3470
3470
3470
3470
3470
3470
3470
3470
3470
3470
3470
3470
3470
3470
3470
3470
3470
3470
3470
3470
3470
3470
3470
3470
3470
3470
3470
3470
3470
3470
3470
3470
3470
3470
3470
3470
3470
3470
3470
3470
3470
3470
3470
3470
3470
3470
3470
3470
3470
3470
3470
3470
3470
3470
3470
3470
3470
3470
3470
3470
3470
3470
3470
3470
3470
3470
3470
3470
3470
3470
3470
3470
3470
3470
3470
3470
3470
3470
3470
3470
3470
3470
3470
3470
3470
3470
3470
3470
3470
3470
3470
3470
3470
3470
3470
3470
3470
3470
3470
3470
3470
3470
3470
3470
3470
3470
3470
3470
3470
3470
3470
3470
3470
3470
3470
3470
3470
3470
3470
3470
3470
3470
3470
3470
3470
3470
3470
3470
3470
3470
3470
3470
3470
3470
3470
3470
3470
3470
3470
3470
3470
3470
3470
3470
3470
3470
3470
3470
3470
3470
3470
3470
3470
3470
3470
3470
3470
3470
3470
3470
3470
3470
3470
3470
3470
3470
3470
3470
3470
3470
3470
3470
3470
3470
3470
3470
3470
3470
3470
3470
3470
3470
3470
3470
3470
3470
3470
3470
3470
3470
3470
3470
3470
3470
3470
3470
3470
3470
3470
3470
3470
3470
3470
3470
3470
3470
3470
3470
3470
3470
3470
3470
3470
3470
3470
3470
3470
3470
3470
3470
3470
3470
3470
3470
3470
3470
3470
3470
3470
3470
3470
3470
3470
3470
3470
3470
3470
3470
3470
3470
3470
3470
3470
3470
3470
3470
3470
3470
3470
3470
3470
3470
3470
3470
3470
3470
3470
3470
3470
3470
3470
3470
3470
3470
3470
3470
3470
3470
3470
3470
3470
3470
3470
3470
3470
3470
3470
3470
3470
3470
3470
3470
3470
3470
3470
3470
3470
3470
3470
3470
3470
3470
3470
3470
3470
3470
3470
3470
3470
3470
3470
3470
3470
3470
3470
3470
3470
3470
3470
3470
3470
3470
3470
3470
3470
3470
3470
3470
3470
3470
3470
3470
3470
3470
3470
3470
3470
3470
3470
3470
3470
3470
3470
3470
3470
3470
3470
3470
3470
3470
3470
3470
3470
3470
3470
3470
3470
3470
3470
3470
3470
3470
3470
3470
3470
3470
3470
3470
3470
3470
3470
3470
3470
3470
3470
3470
3470
3470
3470
3470
3470
3470
3470
3470
3470
3470
3612
3612
3612
3612
3612
3612
3612
3612
3612
3612
3612
3612
3612
3612
3612
3612
3612
3612
3612
3612
3612
3612
3612
3612
3612
3612
3612
3612
3612
3612
3612
3612
3612
3612
3612
3612
3612
3612
3612
3612
3612
3612
3612
3612
3612
3612
3612
3612
3612
3612
3612
3612
3612
3612
3612
3612
3612
3612
3612
3612
3612
3612
3612
3612
3612
3612
3612
3612
3612
3612
3612
3612
3612
3612
3612
3612
3612
3612
3612
3612
3612
3612
3612
3612
3612
3612
3612
3612
3612
3612
3612
3612
3612
3612
3612
3612
3612
3612
3612
3612
3612
3612
3612
3612
3612
3612
3612
3612
3612
3612
3612
3612
3612
3612
3612
3612
3612
3612
3612
3612
3612
3612
3612
3612
3612
3612
3612
3612
3612
3612
3612
3612
3612
3612
3612
3612
3612
3612
3612
3612
3612
3612
3612
3612
3612
3612
3612
3612
3612
3612
3612
3612
3612
3612
3612
3612
3612
3612
3612
3612
3612
3612
3612
3612
3612
3612
3612
3612
3612
3612
3612
3612
3612
3612
3612
3612
3612
3612
3612
3612
3612
3612
3612
3612
3612
3612
3612
3612
3612
3612
3612
3612
3612
3612
3612
3612
3612
3612
3612
3612
3612
3612
3612
3612
3612
3612
3612
3612
3612
3612
3612
3612
3612
3612
3612
3612
3612
3612
3612
3612
3612
3612
3612
3612
3612
3612
3612
3612
3612
3612
3612
3612
3612
3612
3612
3612
3612
3612
3612
3612
3612
3612
3612
3612
3612
3612
3612
3612
3612
3612
3612
3612
3612
3612
3612
3612
3612
3612
3612
3612
3612
3612
3612
3612
3612
3612
3612
3612
3612
3612
3612
3612
3612
3612
3612
3612
3612
3612
3612
3612
3612
3612
3612
3612
3612
3612
3612
3612
3612
3612
3612
3612
3612
3612
3612
3612
3612
3612
3612
3612
3612
3612
3612
3612
3612
3612
3612
3612
3612
3612
3612
3612
3612
3612
3612
3612
3612
3612
3612
3612
3612
3612
3612
3612
3612
3612
3612
3612
3612
3612
3612
3612
3612
3612
3612
3612
3612
3612
3612
3612
3612
3612
3612
3612
3612
3612
3612
3612
3612
3612
3612
3612
3612
3612
3612
3612
3612
3612
3612
3612
3612
3612
3612
3612
3612
3612
3612
3612
3612
3612
3612
3612
3612
3612
3612
3612
3612
3612
3612
3612
3612
3612
3612
3612
3612
3612
3612
3612
3612
3612
3612
3612
3612
3612
3612
3612
3612
3612
3612
3612
3612
3612
3612
3612
3612
3612
3612
3612
3612
3612
3612
3612
3612
3612
3612
3612
3612
3612
3612
3612
3612
3612
3612
3612
3612
3612
3612
3612
3612
3612
3612
3612
3612
3612
3612
3612
3612
3612
3612
3612
3612
3612
3612
3612
3612
3612
3612
3612
3612
3612
3612
3612
3612
3612
3612
3612
3612
3612
3612
3612
3612
3612
3612
3612
3612
3612
3612
3612
3612
3612
3612
3612
3612
3612
3612
3612
3612
3612
3612
3612
3612
3612
3612
3612
3612
3612
3612
3612
3612
3612
3612
3612
